(set-logic QF_BV)
(declare-fun _substvar_2630_ () (_ BitVec 32))
(assert (let ((?x2 (_ bv1 32))) (let ((?x3 (_ bv2 32))) (let ((?x4 (_ bv4 32))) (let ((?x5 (_ bv8 32))) (let ((?x6 (_ bv16 32))) (let ((?x7 (_ bv32 32))) (let ((?x8 (_ bv64 32))) (let ((?x9 (_ bv128 32))) (let ((?x10 (_ bv255 32))) (let ((?x11 (_ bv256 32))) (let ((?x12 (_ bv512 32))) (let ((?x13 (_ bv1024 32))) (let ((?x14 (_ bv2048 32))) (let ((?x15 (_ bv3855 32))) (let ((?x16 (_ bv4096 32))) (let ((?x17 (_ bv8192 32))) (let ((?x18 (_ bv13107 32))) (let ((?x19 (_ bv16384 32))) (let ((?x20 (_ bv21845 32))) (let ((?x21 (_ bv32768 32))) (let ((?x24 ((_ extract 15 0) _substvar_2630_))) (let ((?x25 ((_ zero_extend 16) ?x24))) (let ((?x26 (bvand ?x25 ?x2))) (let (($x27 (distinct ?x26 (_ bv0 32)))) (let ((?x28 (ite $x27 (_ bv1 1) (_ bv0 1)))) (let ((?x29 ((_ zero_extend 16) ?x24))) (let ((?x30 (bvand ?x29 ?x3))) (let (($x31 (distinct ?x30 (_ bv0 32)))) (let ((?x32 (ite $x31 (_ bv1 1) (_ bv0 1)))) (let (($x33 (= ?x32 (_ bv1 1)))) (let ((?x34 (ite $x33 ?x2 (_ bv0 32)))) (let (($x35 (= ?x32 (_ bv1 1)))) (let ((?x36 (ite $x35 ?x3 ?x2))) (let (($x37 (= ?x28 (_ bv1 1)))) (let ((?x38 (ite $x37 ?x36 ?x34))) (let ((?x39 ((_ extract 15 0) ?x38))) (let ((?x40 ((_ zero_extend 16) ?x24))) (let ((?x41 (bvand ?x40 ?x4))) (let (($x42 (distinct ?x41 (_ bv0 32)))) (let ((?x43 (ite $x42 (_ bv1 1) (_ bv0 1)))) (let ((?x44 ((_ zero_extend 16) ?x39))) (let ((?x45 (bvadd ?x44 ?x2))) (let (($x46 (= ?x43 (_ bv1 1)))) (let ((?x47 (ite $x46 ?x45 ?x44))) (let ((?x64 ((_ extract 15 0) ?x47))) (let ((?x65 ((_ zero_extend 16) ?x24))) (let ((?x66 (bvand ?x65 ?x5))) (let (($x67 (distinct ?x66 (_ bv0 32)))) (let ((?x68 (ite $x67 (_ bv1 1) (_ bv0 1)))) (let ((?x69 ((_ zero_extend 16) ?x64))) (let ((?x70 (bvadd ?x69 ?x2))) (let (($x71 (= ?x68 (_ bv1 1)))) (let ((?x72 (ite $x71 ?x70 ?x69))) (let ((?x92 ((_ extract 15 0) ?x72))) (let ((?x93 ((_ zero_extend 16) ?x24))) (let ((?x94 (bvand ?x93 ?x6))) (let (($x95 (distinct ?x94 (_ bv0 32)))) (let ((?x96 (ite $x95 (_ bv1 1) (_ bv0 1)))) (let ((?x97 ((_ zero_extend 16) ?x92))) (let ((?x98 (bvadd ?x97 ?x2))) (let (($x99 (= ?x96 (_ bv1 1)))) (let ((?x100 (ite $x99 ?x98 ?x97))) (let ((?x121 ((_ extract 15 0) ?x100))) (let ((?x122 ((_ zero_extend 16) ?x24))) (let ((?x123 (bvand ?x122 ?x7))) (let (($x124 (distinct ?x123 (_ bv0 32)))) (let ((?x125 (ite $x124 (_ bv1 1) (_ bv0 1)))) (let ((?x126 ((_ zero_extend 16) ?x121))) (let ((?x127 (bvadd ?x126 ?x2))) (let (($x128 (= ?x125 (_ bv1 1)))) (let ((?x129 (ite $x128 ?x127 ?x126))) (let ((?x150 ((_ extract 15 0) ?x129))) (let ((?x151 ((_ zero_extend 16) ?x24))) (let ((?x152 (bvand ?x151 ?x8))) (let (($x153 (distinct ?x152 (_ bv0 32)))) (let ((?x154 (ite $x153 (_ bv1 1) (_ bv0 1)))) (let ((?x155 ((_ zero_extend 16) ?x150))) (let ((?x156 (bvadd ?x155 ?x2))) (let (($x157 (= ?x154 (_ bv1 1)))) (let ((?x158 (ite $x157 ?x156 ?x155))) (let ((?x179 ((_ extract 15 0) ?x158))) (let ((?x180 ((_ zero_extend 16) ?x24))) (let ((?x181 (bvand ?x180 ?x9))) (let (($x182 (distinct ?x181 (_ bv0 32)))) (let ((?x183 (ite $x182 (_ bv1 1) (_ bv0 1)))) (let ((?x184 ((_ zero_extend 16) ?x179))) (let ((?x185 (bvadd ?x184 ?x2))) (let (($x186 (= ?x183 (_ bv1 1)))) (let ((?x187 (ite $x186 ?x185 ?x184))) (let ((?x208 ((_ extract 15 0) ?x187))) (let ((?x209 ((_ zero_extend 16) ?x24))) (let ((?x210 (bvand ?x209 ?x11))) (let (($x211 (distinct ?x210 (_ bv0 32)))) (let ((?x212 (ite $x211 (_ bv1 1) (_ bv0 1)))) (let ((?x213 ((_ zero_extend 16) ?x208))) (let ((?x214 (bvadd ?x213 ?x2))) (let (($x215 (= ?x212 (_ bv1 1)))) (let ((?x216 (ite $x215 ?x214 ?x213))) (let ((?x237 ((_ extract 15 0) ?x216))) (let ((?x238 ((_ zero_extend 16) ?x24))) (let ((?x239 (bvand ?x238 ?x12))) (let (($x240 (distinct ?x239 (_ bv0 32)))) (let ((?x241 (ite $x240 (_ bv1 1) (_ bv0 1)))) (let ((?x242 ((_ zero_extend 16) ?x237))) (let ((?x243 (bvadd ?x242 ?x2))) (let (($x244 (= ?x241 (_ bv1 1)))) (let ((?x245 (ite $x244 ?x243 ?x242))) (let ((?x266 ((_ extract 15 0) ?x245))) (let ((?x267 ((_ zero_extend 16) ?x24))) (let ((?x268 (bvand ?x267 ?x13))) (let (($x269 (distinct ?x268 (_ bv0 32)))) (let ((?x270 (ite $x269 (_ bv1 1) (_ bv0 1)))) (let ((?x271 ((_ zero_extend 16) ?x266))) (let ((?x272 (bvadd ?x271 ?x2))) (let (($x273 (= ?x270 (_ bv1 1)))) (let ((?x274 (ite $x273 ?x272 ?x271))) (let ((?x295 ((_ extract 15 0) ?x274))) (let ((?x296 ((_ zero_extend 16) ?x24))) (let ((?x297 (bvand ?x296 ?x14))) (let (($x298 (distinct ?x297 (_ bv0 32)))) (let ((?x299 (ite $x298 (_ bv1 1) (_ bv0 1)))) (let ((?x300 ((_ zero_extend 16) ?x295))) (let ((?x301 (bvadd ?x300 ?x2))) (let (($x302 (= ?x299 (_ bv1 1)))) (let ((?x303 (ite $x302 ?x301 ?x300))) (let ((?x324 ((_ extract 15 0) ?x303))) (let ((?x325 ((_ zero_extend 16) ?x24))) (let ((?x326 (bvand ?x325 ?x16))) (let (($x327 (distinct ?x326 (_ bv0 32)))) (let ((?x328 (ite $x327 (_ bv1 1) (_ bv0 1)))) (let ((?x329 ((_ zero_extend 16) ?x324))) (let ((?x330 (bvadd ?x329 ?x2))) (let (($x331 (= ?x328 (_ bv1 1)))) (let ((?x332 (ite $x331 ?x330 ?x329))) (let ((?x353 ((_ extract 15 0) ?x332))) (let ((?x354 ((_ zero_extend 16) ?x24))) (let ((?x355 (bvand ?x354 ?x17))) (let (($x356 (distinct ?x355 (_ bv0 32)))) (let ((?x357 (ite $x356 (_ bv1 1) (_ bv0 1)))) (let ((?x358 ((_ zero_extend 16) ?x353))) (let ((?x359 (bvadd ?x358 ?x2))) (let (($x360 (= ?x357 (_ bv1 1)))) (let ((?x361 (ite $x360 ?x359 ?x358))) (let ((?x382 ((_ extract 15 0) ?x361))) (let ((?x383 ((_ zero_extend 16) ?x24))) (let ((?x384 (bvand ?x383 ?x19))) (let (($x385 (distinct ?x384 (_ bv0 32)))) (let ((?x386 (ite $x385 (_ bv1 1) (_ bv0 1)))) (let ((?x387 ((_ zero_extend 16) ?x382))) (let ((?x388 (bvadd ?x387 ?x2))) (let (($x389 (= ?x386 (_ bv1 1)))) (let ((?x390 (ite $x389 ?x388 ?x387))) (let ((?x411 ((_ extract 15 0) ?x390))) (let ((?x412 ((_ zero_extend 16) ?x24))) (let ((?x413 (bvand ?x412 ?x21))) (let (($x414 (distinct ?x413 (_ bv0 32)))) (let ((?x415 (ite $x414 (_ bv1 1) (_ bv0 1)))) (let ((?x416 ((_ zero_extend 16) ?x411))) (let ((?x417 (bvadd ?x416 ?x2))) (let (($x418 (= ?x415 (_ bv1 1)))) (let ((?x419 (ite $x418 ?x417 ?x416))) (let ((?x440 ((_ extract 15 0) ?x419))) (let ((?x441 ((_ zero_extend 16) ?x440))) (let ((?x442 ((_ extract 15 0) _substvar_2630_))) (let ((?x443 ((_ zero_extend 16) ?x442))) (let ((?x444 (bvand ?x443 ?x20))) (let ((?x445 ((_ zero_extend 16) ?x442))) (let ((?x446 ((_ extract 4 0) ?x2))) (let ((?x447 ((_ zero_extend 27) ?x446))) (let ((?x448 (bvashr ?x445 ?x447))) (let ((?x449 (bvand ?x448 ?x20))) (let ((?x450 (bvadd ?x444 ?x449))) (let ((?x469 ((_ extract 15 0) ?x450))) (let ((?x470 ((_ zero_extend 16) ?x469))) (let ((?x471 (bvand ?x470 ?x18))) (let ((?x472 ((_ zero_extend 16) ?x469))) (let ((?x473 ((_ extract 4 0) ?x3))) (let ((?x474 ((_ zero_extend 27) ?x473))) (let ((?x475 (bvashr ?x472 ?x474))) (let ((?x476 (bvand ?x475 ?x18))) (let ((?x477 (bvadd ?x471 ?x476))) (let ((?x496 ((_ extract 15 0) ?x477))) (let ((?x497 ((_ zero_extend 16) ?x496))) (let ((?x498 (bvand ?x497 ?x15))) (let ((?x499 ((_ zero_extend 16) ?x496))) (let ((?x500 ((_ extract 4 0) ?x4))) (let ((?x501 ((_ zero_extend 27) ?x500))) (let ((?x502 (bvashr ?x499 ?x501))) (let ((?x503 (bvand ?x502 ?x15))) (let ((?x504 (bvadd ?x498 ?x503))) (let ((?x523 ((_ extract 15 0) ?x504))) (let ((?x524 ((_ zero_extend 16) ?x523))) (let ((?x525 (bvand ?x524 ?x10))) (let ((?x526 ((_ zero_extend 16) ?x523))) (let ((?x527 ((_ extract 4 0) ?x5))) (let ((?x528 ((_ zero_extend 27) ?x527))) (let ((?x529 (bvashr ?x526 ?x528))) (let ((?x530 (bvand ?x529 ?x10))) (let ((?x531 (bvadd ?x525 ?x530))) (let ((?x550 ((_ extract 15 0) ?x531))) (let ((?x551 ((_ zero_extend 16) ?x550))) (let (($x552 (= ?x441 ?x551))) (let (($x554 $x552)) (let (($x555 (not $x554))) (let (($x556 $x555)) $x556))))))))))))))))))))))))))))))))))))))))))))))))))))))))))))))))))))))))))))))))))))))))))))))))))))))))))))))))))))))))))))))))))))))))))))))))))))))))))))))))))))))))))))))))))))))))))))))))))))))))))))))
(check-sat)
(exit)
